p cnf 729 2148
-1 -4 51 0
1 -4 -51 0
-1 4 -51 0
1 4 51 0
6 7 52 0
-6 7 -52 0
6 -7 -52 0
-6 -7 52 0
-8 -9 53 0
8 -9 -53 0
-8 9 -53 0
8 9 53 0
11 -12 54 0
-11 -12 -54 0
11 12 -54 0
-11 12 54 0
14 -18 55 0
-14 -18 -55 0
14 18 -55 0
-14 18 55 0
20 22 56 0
-20 22 -56 0
20 -22 -56 0
-20 -22 56 0
26 27 57 0
-26 27 -57 0
26 -27 -57 0
-26 -27 57 0
-29 -30 58 0
29 -30 -58 0
-29 30 -58 0
29 30 58 0
-31 -32 59 0
31 -32 -59 0
-31 32 -59 0
31 32 59 0
37 39 60 0
-37 39 -60 0
37 -39 -60 0
-37 -39 60 0
42 -43 61 0
-42 -43 -61 0
42 43 -61 0
-42 43 61 0
44 48 62 0
-44 48 -62 0
44 -48 -62 0
-44 -48 62 0
50 -51 63 0
-50 -51 -63 0
50 51 -63 0
-50 51 63 0
52 -53 64 0
-52 -53 -64 0
52 53 -64 0
-52 53 64 0
54 -55 65 0
-54 -55 -65 0
54 55 -65 0
-54 55 65 0
56 -57 66 0
-56 -57 -66 0
56 57 -66 0
-56 57 66 0
58 -59 67 0
-58 -59 -67 0
58 59 -67 0
-58 59 67 0
60 -61 68 0
-60 -61 -68 0
60 61 -68 0
-60 61 68 0
62 -63 69 0
-62 -63 -69 0
62 63 -69 0
-62 63 69 0
64 -65 70 0
-64 -65 -70 0
64 65 -70 0
-64 65 70 0
66 -67 71 0
-66 -67 -71 0
66 67 -71 0
-66 67 71 0
68 -69 72 0
-68 -69 -72 0
68 69 -72 0
-68 69 72 0
70 -71 73 0
-70 -71 -73 0
70 71 -73 0
-70 71 73 0
72 73 0
-72 -73 0
1 2 74 0
-1 2 -74 0
1 -2 -74 0
-1 -2 74 0
7 8 75 0
-7 8 -75 0
7 -8 -75 0
-7 -8 75 0
10 11 76 0
-10 11 -76 0
10 -11 -76 0
-10 -11 76 0
13 -15 77 0
-13 -15 -77 0
13 15 -77 0
-13 15 77 0
16 20 78 0
-16 20 -78 0
16 -20 -78 0
-16 -20 78 0
-21 -22 79 0
21 -22 -79 0
-21 22 -79 0
21 22 79 0
26 28 80 0
-26 28 -80 0
26 -28 -80 0
-26 -28 80 0
29 30 81 0
-29 30 -81 0
29 -30 -81 0
-29 -30 81 0
33 -38 82 0
-33 -38 -82 0
33 38 -82 0
-33 38 82 0
-39 46 83 0
39 46 -83 0
-39 -46 -83 0
39 -46 83 0
47 48 84 0
-47 48 -84 0
47 -48 -84 0
-47 -48 84 0
73 -74 85 0
-73 -74 -85 0
73 74 -85 0
-73 74 85 0
75 -76 86 0
-75 -76 -86 0
75 76 -86 0
-75 76 86 0
77 -78 87 0
-77 -78 -87 0
77 78 -87 0
-77 78 87 0
79 -80 88 0
-79 -80 -88 0
79 80 -88 0
-79 80 88 0
81 -82 89 0
-81 -82 -89 0
81 82 -89 0
-81 82 89 0
83 -84 90 0
-83 -84 -90 0
83 84 -90 0
-83 84 90 0
85 -86 91 0
-85 -86 -91 0
85 86 -91 0
-85 86 91 0
87 -88 92 0
-87 -88 -92 0
87 88 -92 0
-87 88 92 0
89 -90 93 0
-89 -90 -93 0
89 90 -93 0
-89 90 93 0
-91 -92 93 0
91 -92 -93 0
-91 92 -93 0
91 92 93 0
1 2 94 0
-1 2 -94 0
1 -2 -94 0
-1 -2 94 0
3 4 95 0
-3 4 -95 0
3 -4 -95 0
-3 -4 95 0
6 7 96 0
-6 7 -96 0
6 -7 -96 0
-6 -7 96 0
-8 9 97 0
8 9 -97 0
-8 -9 -97 0
8 -9 97 0
10 -12 98 0
-10 -12 -98 0
10 12 -98 0
-10 12 98 0
-14 -16 99 0
14 -16 -99 0
-14 16 -99 0
14 16 99 0
17 -22 100 0
-17 -22 -100 0
17 22 -100 0
-17 22 100 0
-24 -26 101 0
24 -26 -101 0
-24 26 -101 0
24 26 101 0
27 -29 102 0
-27 -29 -102 0
27 29 -102 0
-27 29 102 0
31 34 103 0
-31 34 -103 0
31 -34 -103 0
-31 -34 103 0
35 36 104 0
-35 36 -104 0
35 -36 -104 0
-35 -36 104 0
-37 -40 105 0
37 -40 -105 0
-37 40 -105 0
37 40 105 0
-44 46 106 0
44 46 -106 0
-44 -46 -106 0
44 -46 106 0
-47 49 107 0
47 49 -107 0
-47 -49 -107 0
47 -49 107 0
93 -94 108 0
-93 -94 -108 0
93 94 -108 0
-93 94 108 0
95 -96 109 0
-95 -96 -109 0
95 96 -109 0
-95 96 109 0
97 -98 110 0
-97 -98 -110 0
97 98 -110 0
-97 98 110 0
99 -100 111 0
-99 -100 -111 0
99 100 -111 0
-99 100 111 0
101 -102 112 0
-101 -102 -112 0
101 102 -112 0
-101 102 112 0
103 -104 113 0
-103 -104 -113 0
103 104 -113 0
-103 104 113 0
105 -106 114 0
-105 -106 -114 0
105 106 -114 0
-105 106 114 0
107 -108 115 0
-107 -108 -115 0
107 108 -115 0
-107 108 115 0
109 -110 116 0
-109 -110 -116 0
109 110 -116 0
-109 110 116 0
111 -112 117 0
-111 -112 -117 0
111 112 -117 0
-111 112 117 0
113 -114 118 0
-113 -114 -118 0
113 114 -118 0
-113 114 118 0
115 -116 119 0
-115 -116 -119 0
115 116 -119 0
-115 116 119 0
117 -118 120 0
-117 -118 -120 0
117 118 -120 0
-117 118 120 0
119 120 0
-119 -120 0
-1 -2 121 0
1 -2 -121 0
-1 2 -121 0
1 2 121 0
4 10 122 0
-4 10 -122 0
4 -10 -122 0
-4 -10 122 0
-12 -13 123 0
12 -13 -123 0
-12 13 -123 0
12 13 123 0
15 16 124 0
-15 16 -124 0
15 -16 -124 0
-15 -16 124 0
18 19 125 0
-18 19 -125 0
18 -19 -125 0
-18 -19 125 0
22 23 126 0
-22 23 -126 0
22 -23 -126 0
-22 -23 126 0
24 27 127 0
-24 27 -127 0
24 -27 -127 0
-24 -27 127 0
31 32 128 0
-31 32 -128 0
31 -32 -128 0
-31 -32 128 0
34 -35 129 0
-34 -35 -129 0
34 35 -129 0
-34 35 129 0
-37 -38 130 0
37 -38 -130 0
-37 38 -130 0
37 38 130 0
-41 42 131 0
41 42 -131 0
-41 -42 -131 0
41 -42 131 0
-44 45 132 0
44 45 -132 0
-44 -45 -132 0
44 -45 132 0
-46 50 133 0
46 50 -133 0
-46 -50 -133 0
46 -50 133 0
121 -122 134 0
-121 -122 -134 0
121 122 -134 0
-121 122 134 0
123 -124 135 0
-123 -124 -135 0
123 124 -135 0
-123 124 135 0
125 -126 136 0
-125 -126 -136 0
125 126 -136 0
-125 126 136 0
127 -128 137 0
-127 -128 -137 0
127 128 -137 0
-127 128 137 0
129 -130 138 0
-129 -130 -138 0
129 130 -138 0
-129 130 138 0
131 -132 139 0
-131 -132 -139 0
131 132 -139 0
-131 132 139 0
133 -134 140 0
-133 -134 -140 0
133 134 -140 0
-133 134 140 0
135 -136 141 0
-135 -136 -141 0
135 136 -141 0
-135 136 141 0
137 -138 142 0
-137 -138 -142 0
137 138 -142 0
-137 138 142 0
139 -140 143 0
-139 -140 -143 0
139 140 -143 0
-139 140 143 0
141 -142 144 0
-141 -142 -144 0
141 142 -144 0
-141 142 144 0
143 144 0
-143 -144 0
1 -7 145 0
-1 -7 -145 0
1 7 -145 0
-1 7 145 0
-10 16 146 0
10 16 -146 0
-10 -16 -146 0
10 -16 146 0
17 -18 147 0
-17 -18 -147 0
17 18 -147 0
-17 18 147 0
-19 20 148 0
19 20 -148 0
-19 -20 -148 0
19 -20 148 0
22 -24 149 0
-22 -24 -149 0
22 24 -149 0
-22 24 149 0
-26 -28 150 0
26 -28 -150 0
-26 28 -150 0
26 28 150 0
29 32 151 0
-29 32 -151 0
29 -32 -151 0
-29 -32 151 0
33 35 152 0
-33 35 -152 0
33 -35 -152 0
-33 -35 152 0
36 37 153 0
-36 37 -153 0
36 -37 -153 0
-36 -37 153 0
38 -42 154 0
-38 -42 -154 0
38 42 -154 0
-38 42 154 0
43 -48 155 0
-43 -48 -155 0
43 48 -155 0
-43 48 155 0
144 -145 156 0
-144 -145 -156 0
144 145 -156 0
-144 145 156 0
146 -147 157 0
-146 -147 -157 0
146 147 -157 0
-146 147 157 0
148 -149 158 0
-148 -149 -158 0
148 149 -158 0
-148 149 158 0
150 -151 159 0
-150 -151 -159 0
150 151 -159 0
-150 151 159 0
152 -153 160 0
-152 -153 -160 0
152 153 -160 0
-152 153 160 0
154 -155 161 0
-154 -155 -161 0
154 155 -161 0
-154 155 161 0
156 -157 162 0
-156 -157 -162 0
156 157 -162 0
-156 157 162 0
158 -159 163 0
-158 -159 -163 0
158 159 -163 0
-158 159 163 0
160 -161 164 0
-160 -161 -164 0
160 161 -164 0
-160 161 164 0
-162 -163 164 0
162 -163 -164 0
-162 163 -164 0
162 163 164 0
-1 -2 165 0
1 -2 -165 0
-1 2 -165 0
1 2 165 0
3 -9 166 0
-3 -9 -166 0
3 9 -166 0
-3 9 166 0
10 -12 167 0
-10 -12 -167 0
10 12 -167 0
-10 12 167 0
-14 -15 168 0
14 -15 -168 0
-14 15 -168 0
14 15 168 0
16 -18 169 0
-16 -18 -169 0
16 18 -169 0
-16 18 169 0
20 -23 170 0
-20 -23 -170 0
20 23 -170 0
-20 23 170 0
-24 26 171 0
24 26 -171 0
-24 -26 -171 0
24 -26 171 0
-27 -30 172 0
27 -30 -172 0
-27 30 -172 0
27 30 172 0
33 -35 173 0
-33 -35 -173 0
33 35 -173 0
-33 35 173 0
-36 37 174 0
36 37 -174 0
-36 -37 -174 0
36 -37 174 0
38 -39 175 0
-38 -39 -175 0
38 39 -175 0
-38 39 175 0
-41 42 176 0
41 42 -176 0
-41 -42 -176 0
41 -42 176 0
45 50 177 0
-45 50 -177 0
45 -50 -177 0
-45 -50 177 0
165 -166 178 0
-165 -166 -178 0
165 166 -178 0
-165 166 178 0
167 -168 179 0
-167 -168 -179 0
167 168 -179 0
-167 168 179 0
169 -170 180 0
-169 -170 -180 0
169 170 -180 0
-169 170 180 0
171 -172 181 0
-171 -172 -181 0
171 172 -181 0
-171 172 181 0
173 -174 182 0
-173 -174 -182 0
173 174 -182 0
-173 174 182 0
175 -176 183 0
-175 -176 -183 0
175 176 -183 0
-175 176 183 0
177 -178 184 0
-177 -178 -184 0
177 178 -184 0
-177 178 184 0
179 -180 185 0
-179 -180 -185 0
179 180 -185 0
-179 180 185 0
181 -182 186 0
-181 -182 -186 0
181 182 -186 0
-181 182 186 0
183 -184 187 0
-183 -184 -187 0
183 184 -187 0
-183 184 187 0
185 -186 188 0
-185 -186 -188 0
185 186 -188 0
-185 186 188 0
187 188 0
-187 -188 0
1 2 189 0
-1 2 -189 0
1 -2 -189 0
-1 -2 189 0
-7 -8 190 0
7 -8 -190 0
-7 8 -190 0
7 8 190 0
9 -11 191 0
-9 -11 -191 0
9 11 -191 0
-9 11 191 0
12 -13 192 0
-12 -13 -192 0
12 13 -192 0
-12 13 192 0
-14 15 193 0
14 15 -193 0
-14 -15 -193 0
14 -15 193 0
16 17 194 0
-16 17 -194 0
16 -17 -194 0
-16 -17 194 0
-19 -20 195 0
19 -20 -195 0
-19 20 -195 0
19 20 195 0
21 22 196 0
-21 22 -196 0
21 -22 -196 0
-21 -22 196 0
-23 24 197 0
23 24 -197 0
-23 -24 -197 0
23 -24 197 0
28 30 198 0
-28 30 -198 0
28 -30 -198 0
-28 -30 198 0
31 -33 199 0
-31 -33 -199 0
31 33 -199 0
-31 33 199 0
-35 38 200 0
35 38 -200 0
-35 -38 -200 0
35 -38 200 0
-40 41 201 0
40 41 -201 0
-40 -41 -201 0
40 -41 201 0
-43 45 202 0
43 45 -202 0
-43 -45 -202 0
43 -45 202 0
47 -48 203 0
-47 -48 -203 0
47 48 -203 0
-47 48 203 0
188 -189 204 0
-188 -189 -204 0
188 189 -204 0
-188 189 204 0
190 -191 205 0
-190 -191 -205 0
190 191 -205 0
-190 191 205 0
192 -193 206 0
-192 -193 -206 0
192 193 -206 0
-192 193 206 0
194 -195 207 0
-194 -195 -207 0
194 195 -207 0
-194 195 207 0
196 -197 208 0
-196 -197 -208 0
196 197 -208 0
-196 197 208 0
198 -199 209 0
-198 -199 -209 0
198 199 -209 0
-198 199 209 0
200 -201 210 0
-200 -201 -210 0
200 201 -210 0
-200 201 210 0
202 -203 211 0
-202 -203 -211 0
202 203 -211 0
-202 203 211 0
204 -205 212 0
-204 -205 -212 0
204 205 -212 0
-204 205 212 0
206 -207 213 0
-206 -207 -213 0
206 207 -213 0
-206 207 213 0
208 -209 214 0
-208 -209 -214 0
208 209 -214 0
-208 209 214 0
210 -211 215 0
-210 -211 -215 0
210 211 -215 0
-210 211 215 0
212 -213 216 0
-212 -213 -216 0
212 213 -216 0
-212 213 216 0
214 -215 217 0
-214 -215 -217 0
214 215 -217 0
-214 215 217 0
216 217 0
-216 -217 0
1 2 218 0
-1 2 -218 0
1 -2 -218 0
-1 -2 218 0
3 -4 219 0
-3 -4 -219 0
3 4 -219 0
-3 4 219 0
12 14 220 0
-12 14 -220 0
12 -14 -220 0
-12 -14 220 0
-15 -16 221 0
15 -16 -221 0
-15 16 -221 0
15 16 221 0
-19 20 222 0
19 20 -222 0
-19 -20 -222 0
19 -20 222 0
23 -24 223 0
-23 -24 -223 0
23 24 -223 0
-23 24 223 0
25 28 224 0
-25 28 -224 0
25 -28 -224 0
-25 -28 224 0
-29 -30 225 0
29 -30 -225 0
-29 30 -225 0
29 30 225 0
-31 -34 226 0
31 -34 -226 0
-31 34 -226 0
31 34 226 0
36 -38 227 0
-36 -38 -227 0
36 38 -227 0
-36 38 227 0
39 43 228 0
-39 43 -228 0
39 -43 -228 0
-39 -43 228 0
46 -48 229 0
-46 -48 -229 0
46 48 -229 0
-46 48 229 0
-49 -50 230 0
49 -50 -230 0
-49 50 -230 0
49 50 230 0
218 -219 231 0
-218 -219 -231 0
218 219 -231 0
-218 219 231 0
220 -221 232 0
-220 -221 -232 0
220 221 -232 0
-220 221 232 0
222 -223 233 0
-222 -223 -233 0
222 223 -233 0
-222 223 233 0
224 -225 234 0
-224 -225 -234 0
224 225 -234 0
-224 225 234 0
226 -227 235 0
-226 -227 -235 0
226 227 -235 0
-226 227 235 0
228 -229 236 0
-228 -229 -236 0
228 229 -236 0
-228 229 236 0
230 -231 237 0
-230 -231 -237 0
230 231 -237 0
-230 231 237 0
232 -233 238 0
-232 -233 -238 0
232 233 -238 0
-232 233 238 0
234 -235 239 0
-234 -235 -239 0
234 235 -239 0
-234 235 239 0
236 -237 240 0
-236 -237 -240 0
236 237 -240 0
-236 237 240 0
238 -239 241 0
-238 -239 -241 0
238 239 -241 0
-238 239 241 0
240 241 0
-240 -241 0
2 3 242 0
-2 3 -242 0
2 -3 -242 0
-2 -3 242 0
4 6 243 0
-4 6 -243 0
4 -6 -243 0
-4 -6 243 0
11 -13 244 0
-11 -13 -244 0
11 13 -244 0
-11 13 244 0
-20 21 245 0
20 21 -245 0
-20 -21 -245 0
20 -21 245 0
-22 -23 246 0
22 -23 -246 0
-22 23 -246 0
22 23 246 0
-31 33 247 0
31 33 -247 0
-31 -33 -247 0
31 -33 247 0
-36 -37 248 0
36 -37 -248 0
-36 37 -248 0
36 37 248 0
38 -39 249 0
-38 -39 -249 0
38 39 -249 0
-38 39 249 0
-40 -41 250 0
40 -41 -250 0
-40 41 -250 0
40 41 250 0
-42 44 251 0
42 44 -251 0
-42 -44 -251 0
42 -44 251 0
46 -47 252 0
-46 -47 -252 0
46 47 -252 0
-46 47 252 0
-48 49 253 0
48 49 -253 0
-48 -49 -253 0
48 -49 253 0
241 -242 254 0
-241 -242 -254 0
241 242 -254 0
-241 242 254 0
243 -244 255 0
-243 -244 -255 0
243 244 -255 0
-243 244 255 0
245 -246 256 0
-245 -246 -256 0
245 246 -256 0
-245 246 256 0
247 -248 257 0
-247 -248 -257 0
247 248 -257 0
-247 248 257 0
249 -250 258 0
-249 -250 -258 0
249 250 -258 0
-249 250 258 0
251 -252 259 0
-251 -252 -259 0
251 252 -259 0
-251 252 259 0
253 -254 260 0
-253 -254 -260 0
253 254 -260 0
-253 254 260 0
255 -256 261 0
-255 -256 -261 0
255 256 -261 0
-255 256 261 0
257 -258 262 0
-257 -258 -262 0
257 258 -262 0
-257 258 262 0
259 -260 263 0
-259 -260 -263 0
259 260 -263 0
-259 260 263 0
261 -262 264 0
-261 -262 -264 0
261 262 -264 0
-261 262 264 0
263 264 0
-263 -264 0
-1 -3 265 0
1 -3 -265 0
-1 3 -265 0
1 3 265 0
-8 13 266 0
8 13 -266 0
-8 -13 -266 0
8 -13 266 0
-18 -23 267 0
18 -23 -267 0
-18 23 -267 0
18 23 267 0
25 26 268 0
-25 26 -268 0
25 -26 -268 0
-25 -26 268 0
-28 -29 269 0
28 -29 -269 0
-28 29 -269 0
28 29 269 0
-30 -31 270 0
30 -31 -270 0
-30 31 -270 0
30 31 270 0
-32 33 271 0
32 33 -271 0
-32 -33 -271 0
32 -33 271 0
-38 39 272 0
38 39 -272 0
-38 -39 -272 0
38 -39 272 0
44 48 273 0
-44 48 -273 0
44 -48 -273 0
-44 -48 273 0
264 -265 274 0
-264 -265 -274 0
264 265 -274 0
-264 265 274 0
266 -267 275 0
-266 -267 -275 0
266 267 -275 0
-266 267 275 0
268 -269 276 0
-268 -269 -276 0
268 269 -276 0
-268 269 276 0
270 -271 277 0
-270 -271 -277 0
270 271 -277 0
-270 271 277 0
272 -273 278 0
-272 -273 -278 0
272 273 -278 0
-272 273 278 0
274 -275 279 0
-274 -275 -279 0
274 275 -279 0
-274 275 279 0
276 -277 280 0
-276 -277 -280 0
276 277 -280 0
-276 277 280 0
-278 -279 280 0
278 -279 -280 0
-278 279 -280 0
278 279 280 0
1 -2 281 0
-1 -2 -281 0
1 2 -281 0
-1 2 281 0
6 -7 282 0
-6 -7 -282 0
6 7 -282 0
-6 7 282 0
-9 12 283 0
9 12 -283 0
-9 -12 -283 0
9 -12 283 0
-14 15 284 0
14 15 -284 0
-14 -15 -284 0
14 -15 284 0
16 21 285 0
-16 21 -285 0
16 -21 -285 0
-16 -21 285 0
22 23 286 0
-22 23 -286 0
22 -23 -286 0
-22 -23 286 0
-28 29 287 0
28 29 -287 0
-28 -29 -287 0
28 -29 287 0
-33 34 288 0
33 34 -288 0
-33 -34 -288 0
33 -34 288 0
-36 -38 289 0
36 -38 -289 0
-36 38 -289 0
36 38 289 0
42 -44 290 0
-42 -44 -290 0
42 44 -290 0
-42 44 290 0
-46 47 291 0
46 47 -291 0
-46 -47 -291 0
46 -47 291 0
48 -50 292 0
-48 -50 -292 0
48 50 -292 0
-48 50 292 0
281 -282 293 0
-281 -282 -293 0
281 282 -293 0
-281 282 293 0
283 -284 294 0
-283 -284 -294 0
283 284 -294 0
-283 284 294 0
285 -286 295 0
-285 -286 -295 0
285 286 -295 0
-285 286 295 0
287 -288 296 0
-287 -288 -296 0
287 288 -296 0
-287 288 296 0
289 -290 297 0
-289 -290 -297 0
289 290 -297 0
-289 290 297 0
291 -292 298 0
-291 -292 -298 0
291 292 -298 0
-291 292 298 0
293 -294 299 0
-293 -294 -299 0
293 294 -299 0
-293 294 299 0
295 -296 300 0
-295 -296 -300 0
295 296 -300 0
-295 296 300 0
297 -298 301 0
-297 -298 -301 0
297 298 -301 0
-297 298 301 0
-299 -300 301 0
299 -300 -301 0
-299 300 -301 0
299 300 301 0
-1 -2 302 0
1 -2 -302 0
-1 2 -302 0
1 2 302 0
-4 8 303 0
4 8 -303 0
-4 -8 -303 0
4 -8 303 0
10 11 304 0
-10 11 -304 0
10 -11 -304 0
-10 -11 304 0
14 -15 305 0
-14 -15 -305 0
14 15 -305 0
-14 15 305 0
-18 22 306 0
18 22 -306 0
-18 -22 -306 0
18 -22 306 0
-24 -25 307 0
24 -25 -307 0
-24 25 -307 0
24 25 307 0
-27 29 308 0
27 29 -308 0
-27 -29 -308 0
27 -29 308 0
31 33 309 0
-31 33 -309 0
31 -33 -309 0
-31 -33 309 0
-34 -35 310 0
34 -35 -310 0
-34 35 -310 0
34 35 310 0
-36 -37 311 0
36 -37 -311 0
-36 37 -311 0
36 37 311 0
-40 42 312 0
40 42 -312 0
-40 -42 -312 0
40 -42 312 0
-43 44 313 0
43 44 -313 0
-43 -44 -313 0
43 -44 313 0
47 -48 314 0
-47 -48 -314 0
47 48 -314 0
-47 48 314 0
301 -302 315 0
-301 -302 -315 0
301 302 -315 0
-301 302 315 0
303 -304 316 0
-303 -304 -316 0
303 304 -316 0
-303 304 316 0
305 -306 317 0
-305 -306 -317 0
305 306 -317 0
-305 306 317 0
307 -308 318 0
-307 -308 -318 0
307 308 -318 0
-307 308 318 0
309 -310 319 0
-309 -310 -319 0
309 310 -319 0
-309 310 319 0
311 -312 320 0
-311 -312 -320 0
311 312 -320 0
-311 312 320 0
313 -314 321 0
-313 -314 -321 0
313 314 -321 0
-313 314 321 0
315 -316 322 0
-315 -316 -322 0
315 316 -322 0
-315 316 322 0
317 -318 323 0
-317 -318 -323 0
317 318 -323 0
-317 318 323 0
319 -320 324 0
-319 -320 -324 0
319 320 -324 0
-319 320 324 0
321 -322 325 0
-321 -322 -325 0
321 322 -325 0
-321 322 325 0
323 -324 326 0
-323 -324 -326 0
323 324 -326 0
-323 324 326 0
325 326 0
-325 -326 0
-2 -3 327 0
2 -3 -327 0
-2 3 -327 0
2 3 327 0
6 7 328 0
-6 7 -328 0
6 -7 -328 0
-6 -7 328 0
9 -13 329 0
-9 -13 -329 0
9 13 -329 0
-9 13 329 0
16 18 330 0
-16 18 -330 0
16 -18 -330 0
-16 -18 330 0
-21 22 331 0
21 22 -331 0
-21 -22 -331 0
21 -22 331 0
23 -25 332 0
-23 -25 -332 0
23 25 -332 0
-23 25 332 0
-28 30 333 0
28 30 -333 0
-28 -30 -333 0
28 -30 333 0
34 35 334 0
-34 35 -334 0
34 -35 -334 0
-34 -35 334 0
37 38 335 0
-37 38 -335 0
37 -38 -335 0
-37 -38 335 0
39 -40 336 0
-39 -40 -336 0
39 40 -336 0
-39 40 336 0
41 43 337 0
-41 43 -337 0
41 -43 -337 0
-41 -43 337 0
45 47 338 0
-45 47 -338 0
45 -47 -338 0
-45 -47 338 0
326 -327 339 0
-326 -327 -339 0
326 327 -339 0
-326 327 339 0
328 -329 340 0
-328 -329 -340 0
328 329 -340 0
-328 329 340 0
330 -331 341 0
-330 -331 -341 0
330 331 -341 0
-330 331 341 0
332 -333 342 0
-332 -333 -342 0
332 333 -342 0
-332 333 342 0
334 -335 343 0
-334 -335 -343 0
334 335 -343 0
-334 335 343 0
336 -337 344 0
-336 -337 -344 0
336 337 -344 0
-336 337 344 0
338 -339 345 0
-338 -339 -345 0
338 339 -345 0
-338 339 345 0
340 -341 346 0
-340 -341 -346 0
340 341 -346 0
-340 341 346 0
342 -343 347 0
-342 -343 -347 0
342 343 -347 0
-342 343 347 0
344 -345 348 0
-344 -345 -348 0
344 345 -348 0
-344 345 348 0
346 -347 349 0
-346 -347 -349 0
346 347 -349 0
-346 347 349 0
348 349 0
-348 -349 0
-3 -6 350 0
3 -6 -350 0
-3 6 -350 0
3 6 350 0
-7 -8 351 0
7 -8 -351 0
-7 8 -351 0
7 8 351 0
-9 -10 352 0
9 -10 -352 0
-9 10 -352 0
9 10 352 0
-12 17 353 0
12 17 -353 0
-12 -17 -353 0
12 -17 353 0
-19 -20 354 0
19 -20 -354 0
-19 20 -354 0
19 20 354 0
22 -23 355 0
-22 -23 -355 0
22 23 -355 0
-22 23 355 0
-25 -26 356 0
25 -26 -356 0
-25 26 -356 0
25 26 356 0
-27 -29 357 0
27 -29 -357 0
-27 29 -357 0
27 29 357 0
34 -35 358 0
-34 -35 -358 0
34 35 -358 0
-34 35 358 0
-36 39 359 0
36 39 -359 0
-36 -39 -359 0
36 -39 359 0
40 44 360 0
-40 44 -360 0
40 -44 -360 0
-40 -44 360 0
-46 48 361 0
46 48 -361 0
-46 -48 -361 0
46 -48 361 0
349 -350 362 0
-349 -350 -362 0
349 350 -362 0
-349 350 362 0
351 -352 363 0
-351 -352 -363 0
351 352 -363 0
-351 352 363 0
353 -354 364 0
-353 -354 -364 0
353 354 -364 0
-353 354 364 0
355 -356 365 0
-355 -356 -365 0
355 356 -365 0
-355 356 365 0
357 -358 366 0
-357 -358 -366 0
357 358 -366 0
-357 358 366 0
359 -360 367 0
-359 -360 -367 0
359 360 -367 0
-359 360 367 0
361 -362 368 0
-361 -362 -368 0
361 362 -368 0
-361 362 368 0
363 -364 369 0
-363 -364 -369 0
363 364 -369 0
-363 364 369 0
365 -366 370 0
-365 -366 -370 0
365 366 -370 0
-365 366 370 0
367 -368 371 0
-367 -368 -371 0
367 368 -371 0
-367 368 371 0
369 -370 372 0
-369 -370 -372 0
369 370 -372 0
-369 370 372 0
371 372 0
-371 -372 0
1 -8 373 0
-1 -8 -373 0
1 8 -373 0
-1 8 373 0
-10 11 374 0
10 11 -374 0
-10 -11 -374 0
10 -11 374 0
-14 -17 375 0
14 -17 -375 0
-14 17 -375 0
14 17 375 0
19 -20 376 0
-19 -20 -376 0
19 20 -376 0
-19 20 376 0
24 -29 377 0
-24 -29 -377 0
24 29 -377 0
-24 29 377 0
30 -32 378 0
-30 -32 -378 0
30 32 -378 0
-30 32 378 0
33 -34 379 0
-33 -34 -379 0
33 34 -379 0
-33 34 379 0
36 -37 380 0
-36 -37 -380 0
36 37 -380 0
-36 37 380 0
-40 -44 381 0
40 -44 -381 0
-40 44 -381 0
40 44 381 0
372 -373 382 0
-372 -373 -382 0
372 373 -382 0
-372 373 382 0
374 -375 383 0
-374 -375 -383 0
374 375 -383 0
-374 375 383 0
376 -377 384 0
-376 -377 -384 0
376 377 -384 0
-376 377 384 0
378 -379 385 0
-378 -379 -385 0
378 379 -385 0
-378 379 385 0
380 -381 386 0
-380 -381 -386 0
380 381 -386 0
-380 381 386 0
382 -383 387 0
-382 -383 -387 0
382 383 -387 0
-382 383 387 0
384 -385 388 0
-384 -385 -388 0
384 385 -388 0
-384 385 388 0
-386 -387 388 0
386 -387 -388 0
-386 387 -388 0
386 387 388 0
-12 389 0
-24 389 0
-12 -24 390 0
-23 389 0
-12 -23 390 0
-24 -23 390 0
-12 -24 -23 391 0
-22 392 0
-21 392 0
-22 -21 393 0
-20 392 0
-22 -20 393 0
-21 -20 393 0
-22 -21 -20 394 0
-389 395 0
-390 396 0
-391 397 0
-392 395 0
-393 396 0
-394 397 0
-389 -392 396 0
-389 -393 397 0
-389 -394 398 0
-390 -392 397 0
-390 -393 398 0
-390 -394 399 0
-391 -392 398 0
-391 -393 399 0
-391 -394 400 0
-19 401 0
-18 401 0
-19 -18 402 0
-17 401 0
-19 -17 402 0
-18 -17 402 0
-19 -18 -17 403 0
-16 404 0
-15 404 0
-16 -15 405 0
-14 404 0
-16 -14 405 0
-15 -14 405 0
-16 -15 -14 406 0
-401 407 0
-402 408 0
-403 409 0
-404 407 0
-405 408 0
-406 409 0
-401 -404 408 0
-401 -405 409 0
-401 -406 410 0
-402 -404 409 0
-402 -405 410 0
-402 -406 411 0
-403 -404 410 0
-403 -405 411 0
-403 -406 412 0
-395 413 0
-397 414 0
-399 415 0
-407 413 0
-409 414 0
-411 415 0
-395 -407 414 0
-395 -409 415 0
-395 -411 416 0
-397 -407 415 0
-397 -409 416 0
-397 -411 417 0
-399 -407 416 0
-399 -409 417 0
-399 -411 418 0
-396 419 0
-398 420 0
-400 421 0
-408 419 0
-410 420 0
-412 421 0
-396 -408 420 0
-396 -410 421 0
-396 -412 422 0
-398 -408 421 0
-398 -410 422 0
-398 -412 423 0
-400 -408 422 0
-400 -410 423 0
-400 -412 424 0
-414 425 0
-419 425 0
-414 -419 426 0
-415 427 0
-420 427 0
-415 -420 428 0
-416 429 0
-421 429 0
-416 -421 430 0
-417 431 0
-422 431 0
-417 -422 432 0
-418 433 0
-423 433 0
-418 -423 434 0
-13 435 0
-25 435 0
-13 -25 436 0
-11 435 0
-13 -11 436 0
-25 -11 436 0
-13 -25 -11 437 0
-10 438 0
-9 438 0
-10 -9 439 0
-8 438 0
-10 -8 439 0
-9 -8 439 0
-10 -9 -8 440 0
-435 441 0
-436 442 0
-437 443 0
-438 441 0
-439 442 0
-440 443 0
-435 -438 442 0
-435 -439 443 0
-435 -440 444 0
-436 -438 443 0
-436 -439 444 0
-436 -440 445 0
-437 -438 444 0
-437 -439 445 0
-437 -440 446 0
-7 447 0
-6 447 0
-7 -6 448 0
-5 447 0
-7 -5 448 0
-6 -5 448 0
-7 -6 -5 449 0
-4 450 0
-3 450 0
-4 -3 451 0
-2 450 0
-4 -2 451 0
-3 -2 451 0
-4 -3 -2 452 0
-447 453 0
-448 454 0
-449 455 0
-450 453 0
-451 454 0
-452 455 0
-447 -450 454 0
-447 -451 455 0
-447 -452 456 0
-448 -450 455 0
-448 -451 456 0
-448 -452 457 0
-449 -450 456 0
-449 -451 457 0
-449 -452 458 0
-441 459 0
-443 460 0
-445 461 0
-453 459 0
-455 460 0
-457 461 0
-441 -453 460 0
-441 -455 461 0
-441 -457 462 0
-443 -453 461 0
-443 -455 462 0
-443 -457 463 0
-445 -453 462 0
-445 -455 463 0
-445 -457 464 0
-442 465 0
-444 466 0
-446 467 0
-454 465 0
-456 466 0
-458 467 0
-442 -454 466 0
-442 -456 467 0
-442 -458 468 0
-444 -454 467 0
-444 -456 468 0
-444 -458 469 0
-446 -454 468 0
-446 -456 469 0
-446 -458 470 0
-460 471 0
-465 471 0
-460 -465 472 0
-461 473 0
-466 473 0
-461 -466 474 0
-462 475 0
-467 475 0
-462 -467 476 0
-463 477 0
-468 477 0
-463 -468 478 0
-464 479 0
-469 479 0
-464 -469 480 0
-1 481 0
-37 481 0
-1 -37 482 0
-49 481 0
-1 -49 482 0
-37 -49 482 0
-1 -37 -49 483 0
-48 484 0
-47 484 0
-48 -47 485 0
-46 484 0
-48 -46 485 0
-47 -46 485 0
-48 -47 -46 486 0
-481 487 0
-482 488 0
-483 489 0
-484 487 0
-485 488 0
-486 489 0
-481 -484 488 0
-481 -485 489 0
-481 -486 490 0
-482 -484 489 0
-482 -485 490 0
-482 -486 491 0
-483 -484 490 0
-483 -485 491 0
-483 -486 492 0
-45 493 0
-44 493 0
-45 -44 494 0
-43 493 0
-45 -43 494 0
-44 -43 494 0
-45 -44 -43 495 0
-42 496 0
-41 496 0
-42 -41 497 0
-40 496 0
-42 -40 497 0
-41 -40 497 0
-42 -41 -40 498 0
-493 499 0
-494 500 0
-495 501 0
-496 499 0
-497 500 0
-498 501 0
-493 -496 500 0
-493 -497 501 0
-493 -498 502 0
-494 -496 501 0
-494 -497 502 0
-494 -498 503 0
-495 -496 502 0
-495 -497 503 0
-495 -498 504 0
-487 505 0
-489 506 0
-491 507 0
-499 505 0
-501 506 0
-503 507 0
-487 -499 506 0
-487 -501 507 0
-487 -503 508 0
-489 -499 507 0
-489 -501 508 0
-489 -503 509 0
-491 -499 508 0
-491 -501 509 0
-491 -503 510 0
-488 511 0
-490 512 0
-492 513 0
-500 511 0
-502 512 0
-504 513 0
-488 -500 512 0
-488 -502 513 0
-488 -504 514 0
-490 -500 513 0
-490 -502 514 0
-490 -504 515 0
-492 -500 514 0
-492 -502 515 0
-492 -504 516 0
-506 517 0
-511 517 0
-506 -511 518 0
-507 519 0
-512 519 0
-507 -512 520 0
-508 521 0
-513 521 0
-508 -513 522 0
-509 523 0
-514 523 0
-509 -514 524 0
-510 525 0
-515 525 0
-510 -515 526 0
-39 527 0
-38 527 0
-39 -38 528 0
-50 527 0
-39 -50 528 0
-38 -50 528 0
-39 -38 -50 529 0
-36 530 0
-35 530 0
-36 -35 531 0
-34 530 0
-36 -34 531 0
-35 -34 531 0
-36 -35 -34 532 0
-527 533 0
-528 534 0
-529 535 0
-530 533 0
-531 534 0
-532 535 0
-527 -530 534 0
-527 -531 535 0
-527 -532 536 0
-528 -530 535 0
-528 -531 536 0
-528 -532 537 0
-529 -530 536 0
-529 -531 537 0
-529 -532 538 0
-33 539 0
-32 539 0
-33 -32 540 0
-31 539 0
-33 -31 540 0
-32 -31 540 0
-33 -32 -31 541 0
-30 542 0
-29 542 0
-30 -29 543 0
-28 544 0
-27 544 0
-28 -27 545 0
-26 544 0
-28 -26 545 0
-27 -26 545 0
-28 -27 -26 546 0
-542 547 0
-543 548 0
-544 547 0
-545 548 0
-546 549 0
-542 -544 548 0
-542 -545 549 0
-542 -546 550 0
-543 -544 549 0
-543 -545 550 0
-543 -546 551 0
-539 552 0
-540 553 0
-541 554 0
-547 552 0
-548 553 0
-549 554 0
-550 555 0
-551 556 0
-539 -547 553 0
-539 -548 554 0
-539 -549 555 0
-539 -550 556 0
-539 -551 557 0
-540 -547 554 0
-540 -548 555 0
-540 -549 556 0
-540 -550 557 0
-540 -551 558 0
-541 -547 555 0
-541 -548 556 0
-541 -549 557 0
-541 -550 558 0
-541 -551 559 0
-533 560 0
-535 561 0
-537 562 0
-552 560 0
-554 561 0
-556 562 0
-558 563 0
-533 -552 561 0
-533 -554 562 0
-533 -556 563 0
-533 -558 564 0
-535 -552 562 0
-535 -554 563 0
-535 -556 564 0
-535 -558 565 0
-537 -552 563 0
-537 -554 564 0
-537 -556 565 0
-537 -558 566 0
-534 567 0
-536 568 0
-538 569 0
-553 567 0
-555 568 0
-557 569 0
-559 570 0
-534 -553 568 0
-534 -555 569 0
-534 -557 570 0
-534 -559 571 0
-536 -553 569 0
-536 -555 570 0
-536 -557 571 0
-536 -559 572 0
-538 -553 570 0
-538 -555 571 0
-538 -557 572 0
-538 -559 573 0
-561 574 0
-567 574 0
-561 -567 575 0
-562 576 0
-568 576 0
-562 -568 577 0
-563 578 0
-569 578 0
-563 -569 579 0
-564 580 0
-570 580 0
-564 -570 581 0
-565 582 0
-571 582 0
-565 -571 583 0
-566 584 0
-572 584 0
-566 -572 585 0
-505 586 0
-520 587 0
-524 588 0
-560 586 0
-577 587 0
-581 588 0
-585 589 0
-505 -560 587 0
-505 -577 588 0
-505 -581 589 0
-505 -585 590 0
-520 -560 588 0
-520 -577 589 0
-520 -581 590 0
-524 -560 589 0
-524 -577 590 0
-518 591 0
-522 592 0
-526 593 0
-575 591 0
-579 592 0
-583 593 0
-518 -575 592 0
-518 -579 593 0
-518 -583 594 0
-522 -575 593 0
-522 -579 594 0
-526 -575 594 0
-587 595 0
-591 595 0
-587 -591 596 0
-588 597 0
-592 597 0
-588 -592 598 0
-589 599 0
-593 599 0
-589 -593 600 0
-590 601 0
-594 601 0
-590 -594 602 0
-517 603 0
-521 604 0
-525 605 0
-574 603 0
-578 604 0
-582 605 0
-573 606 0
-517 -574 604 0
-517 -578 605 0
-517 -582 606 0
-517 -573 607 0
-521 -574 605 0
-521 -578 606 0
-521 -582 607 0
-525 -574 606 0
-525 -578 607 0
-519 608 0
-523 609 0
-516 610 0
-576 608 0
-580 609 0
-584 610 0
-519 -576 609 0
-519 -580 610 0
-519 -584 611 0
-523 -576 610 0
-523 -580 611 0
-516 -576 611 0
-604 612 0
-608 612 0
-604 -608 613 0
-605 614 0
-609 614 0
-605 -609 615 0
-606 616 0
-610 616 0
-606 -610 617 0
-607 618 0
-611 618 0
-595 619 0
-603 619 0
-595 -603 620 0
-596 621 0
-612 621 0
-596 -612 622 0
-597 623 0
-613 623 0
-597 -613 624 0
-598 625 0
-614 625 0
-598 -614 626 0
-599 627 0
-615 627 0
-599 -615 628 0
-600 629 0
-616 629 0
-600 -616 630 0
-601 631 0
-617 631 0
-601 -617 632 0
-602 633 0
-618 633 0
-459 634 0
-474 635 0
-478 636 0
-586 634 0
-622 635 0
-626 636 0
-630 637 0
-459 -586 635 0
-459 -622 636 0
-459 -626 637 0
-459 -630 638 0
-474 -586 636 0
-474 -622 637 0
-474 -626 638 0
-478 -586 637 0
-478 -622 638 0
-472 639 0
-476 640 0
-480 641 0
-620 639 0
-624 640 0
-628 641 0
-632 642 0
-472 -620 640 0
-472 -624 641 0
-472 -628 642 0
-476 -620 641 0
-476 -624 642 0
-480 -620 642 0
-635 643 0
-639 643 0
-635 -639 644 0
-636 645 0
-640 645 0
-636 -640 646 0
-637 647 0
-641 647 0
-637 -641 648 0
-638 649 0
-642 649 0
-638 -642 650 0
-471 651 0
-475 652 0
-479 653 0
-619 651 0
-623 652 0
-627 653 0
-631 654 0
-471 -619 652 0
-471 -623 653 0
-471 -627 654 0
-471 -631 655 0
-475 -619 653 0
-475 -623 654 0
-475 -627 655 0
-479 -619 654 0
-479 -623 655 0
-473 656 0
-477 657 0
-470 658 0
-621 656 0
-625 657 0
-629 658 0
-633 659 0
-473 -621 657 0
-473 -625 658 0
-473 -629 659 0
-477 -621 658 0
-477 -625 659 0
-470 -621 659 0
-652 660 0
-656 660 0
-652 -656 661 0
-653 662 0
-657 662 0
-653 -657 663 0
-654 664 0
-658 664 0
-654 -658 665 0
-655 666 0
-659 666 0
-643 667 0
-651 667 0
-643 -651 668 0
-644 669 0
-660 669 0
-644 -660 670 0
-645 671 0
-661 671 0
-645 -661 672 0
-646 673 0
-662 673 0
-646 -662 674 0
-647 675 0
-663 675 0
-647 -663 676 0
-648 677 0
-664 677 0
-648 -664 678 0
-649 679 0
-665 679 0
-649 -665 680 0
-650 681 0
-666 681 0
-413 682 0
-428 683 0
-432 684 0
-634 682 0
-670 683 0
-674 684 0
-678 685 0
-413 -634 683 0
-413 -670 684 0
-413 -674 685 0
-413 -678 686 0
-428 -634 684 0
-428 -670 685 0
-428 -674 686 0
-432 -634 685 0
-432 -670 686 0
-426 687 0
-430 688 0
-434 689 0
-668 687 0
-672 688 0
-676 689 0
-680 690 0
-426 -668 688 0
-426 -672 689 0
-426 -676 690 0
-430 -668 689 0
-430 -672 690 0
-434 -668 690 0
-683 691 0
-687 691 0
-683 -687 692 0
-684 693 0
-688 693 0
-684 -688 694 0
-685 695 0
-689 695 0
-685 -689 696 0
-686 697 0
-690 697 0
-686 -690 698 0
-425 699 0
-429 700 0
-433 701 0
-667 699 0
-671 700 0
-675 701 0
-679 702 0
-425 -667 700 0
-425 -671 701 0
-425 -675 702 0
-425 -679 703 0
-429 -667 701 0
-429 -671 702 0
-429 -675 703 0
-433 -667 702 0
-433 -671 703 0
-427 704 0
-431 705 0
-424 706 0
-669 704 0
-673 705 0
-677 706 0
-681 707 0
-427 -669 705 0
-427 -673 706 0
-427 -677 707 0
-431 -669 706 0
-431 -673 707 0
-424 -669 707 0
-700 708 0
-704 708 0
-700 -704 709 0
-701 710 0
-705 710 0
-701 -705 711 0
-702 712 0
-706 712 0
-702 -706 713 0
-703 714 0
-707 714 0
-691 715 0
-699 715 0
-691 -699 716 0
-692 717 0
-708 717 0
-692 -708 718 0
-693 719 0
-709 719 0
-693 -709 720 0
-694 721 0
-710 721 0
-694 -710 722 0
-695 723 0
-711 723 0
-695 -711 724 0
-696 725 0
-712 725 0
-696 -712 726 0
-697 727 0
-713 727 0
-697 -713 728 0
-698 729 0
-714 729 0
-729 0
